*** feff input generated by xraylarch cif2feff using pymatgen ***
TITLE Structure from AMCSD, AMS_ID: 11157
TITLE Mineral Name: Platinum
TITLE Journal: Crystal Structures 1, pp. 7-83 (1963)
TITLE Authors: Wyckoff R W G
TITLE Title1:  Second edition. Interscience Publishers, New York, New York
TITLE Title2:  Cubic closest packed, ccp, structure
TITLE Formula:    Pt
TITLE SpaceGroup: Fm-3m
TITLE # sites:    1
* crystallographics sites: note that these sites may not be unique!
*     using absorber at site 1 in the list below
*     selected as absorber="Pt", absorber_site=1
* index   X        Y        Z      species
*   1   0.000000 0.000000 0.000000  Pt   <- absorber
*


EDGE    L3
S02     1.0
CONTROL 1 1 1 1 1 1
PRINT   1 0 0 0 0 3
EXAFS   20.0
NLEG     6
RPATH   7.00
*SCF    5.0

EXCHANGE 0

*  POLARIZATION  0 0 0

POTENTIALS
*    IPOT  Z   Tag
      0    78   Pt
      1    78   Pt

ATOMS
*    x         y         z       ipot  tag   distance  site_info
    0.00000   0.00000   0.00000    0   Pt    0.00000  * Pt_1
   -1.96155   0.00000   1.96155    1   Pt    2.77405  * Pt_1
   -1.96155   1.96155   0.00000    1   Pt    2.77405  * Pt_1
   -0.00000  -1.96155   1.96155    1   Pt    2.77405  * Pt_1
    1.96155  -1.96155   0.00000    1   Pt    2.77405  * Pt_1
    0.00000   1.96155  -1.96155    1   Pt    2.77405  * Pt_1
    1.96155   0.00000  -1.96155    1   Pt    2.77405  * Pt_1
   -1.96155  -1.96155  -0.00000    1   Pt    2.77405  * Pt_1
   -1.96155   0.00000  -1.96155    1   Pt    2.77405  * Pt_1
   -0.00000  -1.96155  -1.96155    1   Pt    2.77405  * Pt_1
    0.00000   1.96155   1.96155    1   Pt    2.77405  * Pt_1
    1.96155   0.00000   1.96155    1   Pt    2.77405  * Pt_1
    1.96155   1.96155   0.00000    1   Pt    2.77405  * Pt_1
   -3.92310   0.00000  -0.00000    1   Pt    3.92310  * Pt_1
    3.92310   0.00000   0.00000    1   Pt    3.92310  * Pt_1
   -0.00000  -3.92310  -0.00000    1   Pt    3.92310  * Pt_1
   -0.00000   0.00000  -3.92310    1   Pt    3.92310  * Pt_1
    0.00000   0.00000   3.92310    1   Pt    3.92310  * Pt_1
    0.00000   3.92310   0.00000    1   Pt    3.92310  * Pt_1
   -3.92310  -1.96155   1.96155    1   Pt    4.80480  * Pt_1
   -1.96155  -3.92310   1.96155    1   Pt    4.80480  * Pt_1
   -1.96155  -1.96155   3.92310    1   Pt    4.80480  * Pt_1
   -3.92310   1.96155  -1.96155    1   Pt    4.80480  * Pt_1
   -1.96155   1.96155  -3.92310    1   Pt    4.80480  * Pt_1
   -1.96155   3.92310  -1.96155    1   Pt    4.80480  * Pt_1
   -3.92310   1.96155   1.96155    1   Pt    4.80480  * Pt_1
   -1.96155   1.96155   3.92310    1   Pt    4.80480  * Pt_1
   -1.96155   3.92310   1.96155    1   Pt    4.80480  * Pt_1
    1.96155  -3.92310  -1.96155    1   Pt    4.80480  * Pt_1
    1.96155  -1.96155  -3.92310    1   Pt    4.80480  * Pt_1
    3.92310  -1.96155  -1.96155    1   Pt    4.80480  * Pt_1
    1.96155  -3.92310   1.96155    1   Pt    4.80480  * Pt_1
    1.96155  -1.96155   3.92310    1   Pt    4.80480  * Pt_1
    3.92310  -1.96155   1.96155    1   Pt    4.80480  * Pt_1
    1.96155   1.96155  -3.92310    1   Pt    4.80480  * Pt_1
    1.96155   3.92310  -1.96155    1   Pt    4.80480  * Pt_1
    3.92310   1.96155  -1.96155    1   Pt    4.80480  * Pt_1
   -3.92310  -1.96155  -1.96155    1   Pt    4.80480  * Pt_1
   -1.96155  -3.92310  -1.96155    1   Pt    4.80480  * Pt_1
   -1.96155  -1.96155  -3.92310    1   Pt    4.80480  * Pt_1
    1.96155   1.96155   3.92310    1   Pt    4.80480  * Pt_1
    1.96155   3.92310   1.96155    1   Pt    4.80480  * Pt_1
    3.92310   1.96155   1.96155    1   Pt    4.80480  * Pt_1
   -3.92310   0.00000   3.92310    1   Pt    5.54810  * Pt_1
   -3.92310   3.92310   0.00000    1   Pt    5.54810  * Pt_1
   -0.00000  -3.92310   3.92310    1   Pt    5.54810  * Pt_1
    3.92310  -3.92310   0.00000    1   Pt    5.54810  * Pt_1
    0.00000   3.92310  -3.92310    1   Pt    5.54810  * Pt_1
    3.92310   0.00000  -3.92310    1   Pt    5.54810  * Pt_1
   -3.92310  -3.92310  -0.00000    1   Pt    5.54810  * Pt_1
   -3.92310   0.00000  -3.92310    1   Pt    5.54810  * Pt_1
   -0.00000  -3.92310  -3.92310    1   Pt    5.54810  * Pt_1
    0.00000   3.92310   3.92310    1   Pt    5.54810  * Pt_1
    3.92310   0.00000   3.92310    1   Pt    5.54810  * Pt_1
    3.92310   3.92310   0.00000    1   Pt    5.54810  * Pt_1
   -5.88465   0.00000   1.96155    1   Pt    6.20297  * Pt_1
   -5.88465   1.96155  -0.00000    1   Pt    6.20297  * Pt_1
   -1.96155   5.88465   0.00000    1   Pt    6.20297  * Pt_1
   -0.00000  -5.88465   1.96155    1   Pt    6.20297  * Pt_1
    1.96155  -5.88465  -0.00000    1   Pt    6.20297  * Pt_1
    5.88465  -1.96155   0.00000    1   Pt    6.20297  * Pt_1
    0.00000   5.88465  -1.96155    1   Pt    6.20297  * Pt_1
    5.88465   0.00000  -1.96155    1   Pt    6.20297  * Pt_1
   -1.96155  -5.88465  -0.00000    1   Pt    6.20297  * Pt_1
   -5.88465   0.00000  -1.96155    1   Pt    6.20297  * Pt_1
   -1.96155   0.00000  -5.88465    1   Pt    6.20297  * Pt_1
   -1.96155   0.00000   5.88465    1   Pt    6.20297  * Pt_1
   -0.00000  -5.88465  -1.96155    1   Pt    6.20297  * Pt_1
   -0.00000  -1.96155  -5.88465    1   Pt    6.20297  * Pt_1
   -0.00000  -1.96155   5.88465    1   Pt    6.20297  * Pt_1
    0.00000   1.96155  -5.88465    1   Pt    6.20297  * Pt_1
    1.96155   0.00000  -5.88465    1   Pt    6.20297  * Pt_1
    0.00000   1.96155   5.88465    1   Pt    6.20297  * Pt_1
    1.96155   0.00000   5.88465    1   Pt    6.20297  * Pt_1
    0.00000   5.88465   1.96155    1   Pt    6.20297  * Pt_1
    5.88465   0.00000   1.96155    1   Pt    6.20297  * Pt_1
    1.96155   5.88465   0.00000    1   Pt    6.20297  * Pt_1
   -5.88465  -1.96155  -0.00000    1   Pt    6.20297  * Pt_1
    5.88465   1.96155   0.00000    1   Pt    6.20297  * Pt_1
   -3.92310  -3.92310   3.92310    1   Pt    6.79501  * Pt_1
   -3.92310   3.92310   3.92310    1   Pt    6.79501  * Pt_1
    3.92310  -3.92310  -3.92310    1   Pt    6.79501  * Pt_1
    3.92310   3.92310  -3.92310    1   Pt    6.79501  * Pt_1
   -3.92310  -3.92310  -3.92310    1   Pt    6.79501  * Pt_1
   -3.92310   3.92310  -3.92310    1   Pt    6.79501  * Pt_1
    3.92310  -3.92310   3.92310    1   Pt    6.79501  * Pt_1
    3.92310   3.92310   3.92310    1   Pt    6.79501  * Pt_1

* END
