
 * This feff6 input file was generated by Artemis 0.8.006
 * Atoms written by and copyright (c) Bruce Ravel, 1998-2001

 * -- * -- * -- * -- * -- * -- * -- * -- * -- * -- * -- * -- * -- * 
 *   total mu*x=1:     5.10 microns,  unit edge step:     8.71 microns
 *   specific gravity = 11.818
 * -- * -- * -- * -- * -- * -- * -- * -- * -- * -- * -- * -- * -- * 
 *   Normalization correction:    0.00043 ang^2
 * -- * -- * -- * -- * -- * -- * -- * -- * -- * -- * -- * -- * -- * 

 * -----------------------------------------------------------------
 * The following crystallographic data were used:
 *
 * title	beta-PtO2, orthorhombic, PDF# 43-1045
 * space = P n n m
 * a =	  4.48390	b =	  4.53850	c =	  3.1360
 * alpha =	 90.0	beta =	 90.0	gamma =	 90.0
 * core =	Pt	edge =	L3
 * atoms
 * ! elem   x          y          z       tag        occ
 *   Pt    0.00000    0.00000    0.00000                1.00000
 *   O     0.26700    0.35000    0.00000                1.00000
 * -----------------------------------------------------------------


 TITLE beta-PtO2, orthorhombic, PDF# 43-1045

 HOLE 4   1.0   *  Pt L3 edge  (11564.0 eV), second number is S0^2

 *         mphase,mpath,mfeff,mchi
 CONTROL   1      1     1     1 1 1
 PRINT     1      0     0     0 0 3

 RMAX       10.0

 *CRITERIA     curved   plane
 *DEBYE        temp     debye-temp
 NLEG         4

 POTENTIALS
 *    ipot   Z  element
        0   78   Pt        
        1   78   Pt        
        2    8   O         

 ATOMS                          * this list contains 385 atoms
 *   x          y          z      ipot  tag              distance
    0.00000    0.00000    0.00000  0 Pt              0.00000
   -1.19720    1.58848    0.00000  2 O_1             1.98911
    1.19720   -1.58848    0.00000  2 O_1             1.98911
    1.04475    0.68078    1.56800  2 O_2             2.00339
   -1.04475   -0.68078    1.56800  2 O_2             2.00339
    1.04475    0.68078   -1.56800  2 O_2             2.00339
   -1.04475   -0.68078   -1.56800  2 O_2             2.00339
    0.00000    0.00000    3.13600  1 Pt_1            3.13600
    0.00000    0.00000   -3.13600  1 Pt_1            3.13600
    1.19720    2.95003    0.00000  2 O_3             3.18370
   -1.19720   -2.95003    0.00000  2 O_3             3.18370
    2.24195    2.26925    1.56800  1 Pt_2            3.55450
   -2.24195    2.26925    1.56800  1 Pt_2            3.55450
    2.24195   -2.26925    1.56800  1 Pt_2            3.55450
   -2.24195   -2.26925    1.56800  1 Pt_2            3.55450
    2.24195    2.26925   -1.56800  1 Pt_2            3.55450
   -2.24195    2.26925   -1.56800  1 Pt_2            3.55450
    2.24195   -2.26925   -1.56800  1 Pt_2            3.55450
   -2.24195   -2.26925   -1.56800  1 Pt_2            3.55450
    3.28670    1.58848    0.00000  2 O_4             3.65043
   -3.28670   -1.58848    0.00000  2 O_4             3.65043
   -1.19720    1.58848    3.13600  2 O_5             3.71363
    1.19720   -1.58848    3.13600  2 O_5             3.71363
   -1.19720    1.58848   -3.13600  2 O_5             3.71363
    1.19720   -1.58848   -3.13600  2 O_5             3.71363
   -3.43915    0.68078    1.56800  2 O_6             3.84055
    3.43915   -0.68078    1.56800  2 O_6             3.84055
   -3.43915    0.68078   -1.56800  2 O_6             3.84055
    3.43915   -0.68078   -1.56800  2 O_6             3.84055
   -1.04475    3.85772    1.56800  2 O_7             4.29327
    1.04475   -3.85772    1.56800  2 O_7             4.29327
   -1.04475    3.85772   -1.56800  2 O_7             4.29327
    1.04475   -3.85772   -1.56800  2 O_7             4.29327
   -3.28670    2.95003    0.00000  2 O_8             4.41645
    3.28670   -2.95003    0.00000  2 O_8             4.41645
    1.19720    2.95003    3.13600  2 O_9             4.46883
   -1.19720   -2.95003    3.13600  2 O_9             4.46883
    1.19720    2.95003   -3.13600  2 O_9             4.46883
   -1.19720   -2.95003   -3.13600  2 O_9             4.46883
    4.48390    0.00000    0.00000  1 Pt_3            4.48390
   -4.48390    0.00000    0.00000  1 Pt_3            4.48390
    0.00000    4.53850    0.00000  1 Pt_4            4.53850
    0.00000   -4.53850    0.00000  1 Pt_4            4.53850
    3.28670    1.58848    3.13600  2 O_10            4.81250
   -3.28670   -1.58848    3.13600  2 O_10            4.81250
    3.28670    1.58848   -3.13600  2 O_10            4.81250
   -3.28670   -1.58848   -3.13600  2 O_10            4.81250
    1.04475    0.68078    4.70400  2 O_11            4.86648
   -1.04475   -0.68078    4.70400  2 O_11            4.86648
    1.04475    0.68078   -4.70400  2 O_11            4.86648
   -1.04475   -0.68078   -4.70400  2 O_11            4.86648
    3.43915    3.85772    1.56800  2 O_12            5.40078
   -3.43915   -3.85772    1.56800  2 O_12            5.40078
    3.43915    3.85772   -1.56800  2 O_12            5.40078
   -3.43915   -3.85772   -1.56800  2 O_12            5.40078
   -3.28670    2.95003    3.13600  2 O_13            5.41660
    3.28670   -2.95003    3.13600  2 O_13            5.41660
   -3.28670    2.95003   -3.13600  2 O_13            5.41660
    3.28670   -2.95003   -3.13600  2 O_13            5.41660
    4.48390    0.00000    3.13600  1 Pt_5            5.47173
   -4.48390    0.00000    3.13600  1 Pt_5            5.47173
    4.48390    0.00000   -3.13600  1 Pt_5            5.47173
   -4.48390    0.00000   -3.13600  1 Pt_5            5.47173
    0.00000    4.53850    3.13600  1 Pt_6            5.51656
    0.00000   -4.53850    3.13600  1 Pt_6            5.51656
    0.00000    4.53850   -3.13600  1 Pt_6            5.51656
    0.00000   -4.53850   -3.13600  1 Pt_6            5.51656
    1.04475    5.21927    1.56800  2 O_14            5.54896
   -1.04475   -5.21927    1.56800  2 O_14            5.54896
    1.04475    5.21927   -1.56800  2 O_14            5.54896
   -1.04475   -5.21927   -1.56800  2 O_14            5.54896
    2.24195    2.26925    4.70400  1 Pt_7            5.68361
   -2.24195    2.26925    4.70400  1 Pt_7            5.68361
    2.24195   -2.26925    4.70400  1 Pt_7            5.68361
   -2.24195   -2.26925    4.70400  1 Pt_7            5.68361
    2.24195    2.26925   -4.70400  1 Pt_7            5.68361
   -2.24195    2.26925   -4.70400  1 Pt_7            5.68361
    2.24195   -2.26925   -4.70400  1 Pt_7            5.68361
   -2.24195   -2.26925   -4.70400  1 Pt_7            5.68361
    5.52865    0.68078    1.56800  2 O_15            5.78689
   -5.52865   -0.68078    1.56800  2 O_15            5.78689
    5.52865    0.68078   -1.56800  2 O_15            5.78689
   -5.52865   -0.68078   -1.56800  2 O_15            5.78689
   -3.43915    0.68078    4.70400  2 O_16            5.86676
    3.43915   -0.68078    4.70400  2 O_16            5.86676
   -3.43915    0.68078   -4.70400  2 O_16            5.86676
    3.43915   -0.68078   -4.70400  2 O_16            5.86676
   -5.68110    1.58848    0.00000  2 O_17            5.89900
    5.68110   -1.58848    0.00000  2 O_17            5.89900
   -1.04475    3.85772    4.70400  2 O_18            6.17261
    1.04475   -3.85772    4.70400  2 O_18            6.17261
   -1.04475    3.85772   -4.70400  2 O_18            6.17261
    1.04475   -3.85772   -4.70400  2 O_18            6.17261
   -1.19720    6.12697    0.00000  2 O_19            6.24284
    1.19720   -6.12697    0.00000  2 O_19            6.24284
    0.00000    0.00000    6.27200  1 Pt_8            6.27200
    0.00000    0.00000   -6.27200  1 Pt_8            6.27200
    4.48390    4.53850    0.00000  1 Pt_9            6.37992
   -4.48390    4.53850    0.00000  1 Pt_9            6.37992
    4.48390   -4.53850    0.00000  1 Pt_9            6.37992
   -4.48390   -4.53850    0.00000  1 Pt_9            6.37992
    5.68110    2.95003    0.00000  2 O_20            6.40137
   -5.68110   -2.95003    0.00000  2 O_20            6.40137
   -3.43915    5.21927    1.56800  2 O_21            6.44416
    3.43915   -5.21927    1.56800  2 O_21            6.44416
   -3.43915    5.21927   -1.56800  2 O_21            6.44416
    3.43915   -5.21927   -1.56800  2 O_21            6.44416
   -1.19720    1.58848    6.27200  2 O_22            6.57986
    1.19720   -1.58848    6.27200  2 O_22            6.57986
   -1.19720    1.58848   -6.27200  2 O_22            6.57986
    1.19720   -1.58848   -6.27200  2 O_22            6.57986
   -5.68110    1.58848    3.13600  2 O_23            6.68077
    5.68110   -1.58848    3.13600  2 O_23            6.68077
   -5.68110    1.58848   -3.13600  2 O_23            6.68077
    5.68110   -1.58848   -3.13600  2 O_23            6.68077
   -5.52865    3.85772    1.56800  2 O_24            6.92146
    5.52865   -3.85772    1.56800  2 O_24            6.92146
   -5.52865    3.85772   -1.56800  2 O_24            6.92146
    5.52865   -3.85772   -1.56800  2 O_24            6.92146
    3.28670    6.12697    0.00000  2 O_25            6.95285
   -3.28670   -6.12697    0.00000  2 O_25            6.95285
   -1.19720    6.12697    3.13600  2 O_26            6.98624
    1.19720   -6.12697    3.13600  2 O_26            6.98624
   -1.19720    6.12697   -3.13600  2 O_26            6.98624
    1.19720   -6.12697   -3.13600  2 O_26            6.98624
    3.43915    3.85772    4.70400  2 O_27            6.98837
   -3.43915   -3.85772    4.70400  2 O_27            6.98837
    3.43915    3.85772   -4.70400  2 O_27            6.98837
   -3.43915   -3.85772   -4.70400  2 O_27            6.98837
    1.19720    2.95003    6.27200  2 O_28            7.03377
   -1.19720   -2.95003    6.27200  2 O_28            7.03377
    1.19720    2.95003   -6.27200  2 O_28            7.03377
   -1.19720   -2.95003   -6.27200  2 O_28            7.03377
    1.04475    5.21927    4.70400  2 O_29            7.10351
   -1.04475   -5.21927    4.70400  2 O_29            7.10351
    1.04475    5.21927   -4.70400  2 O_29            7.10351
   -1.04475   -5.21927   -4.70400  2 O_29            7.10351
    4.48390    4.53850    3.13600  1 Pt_10           7.10900
   -4.48390    4.53850    3.13600  1 Pt_10           7.10900
    4.48390   -4.53850    3.13600  1 Pt_10           7.10900
   -4.48390   -4.53850    3.13600  1 Pt_10           7.10900
    4.48390    4.53850   -3.13600  1 Pt_10           7.10900
   -4.48390    4.53850   -3.13600  1 Pt_10           7.10900
    4.48390   -4.53850   -3.13600  1 Pt_10           7.10900
   -4.48390   -4.53850   -3.13600  1 Pt_10           7.10900
    5.68110    2.95003    3.13600  2 O_30            7.12826
   -5.68110   -2.95003    3.13600  2 O_30            7.12826
    5.68110    2.95003   -3.13600  2 O_30            7.12826
   -5.68110   -2.95003   -3.13600  2 O_30            7.12826
    3.28670    1.58848    6.27200  2 O_31            7.25697
   -3.28670   -1.58848    6.27200  2 O_31            7.25697
    3.28670    1.58848   -6.27200  2 O_31            7.25697
   -3.28670   -1.58848   -6.27200  2 O_31            7.25697
    6.72585    2.26925    1.56800  1 Pt_11           7.26947
   -6.72585    2.26925    1.56800  1 Pt_11           7.26947
    6.72585   -2.26925    1.56800  1 Pt_11           7.26947
   -6.72585   -2.26925    1.56800  1 Pt_11           7.26947
    6.72585    2.26925   -1.56800  1 Pt_11           7.26947
   -6.72585    2.26925   -1.56800  1 Pt_11           7.26947
    6.72585   -2.26925   -1.56800  1 Pt_11           7.26947
   -6.72585   -2.26925   -1.56800  1 Pt_11           7.26947
    5.52865    0.68078    4.70400  2 O_32            7.29089
   -5.52865   -0.68078    4.70400  2 O_32            7.29089
    5.52865    0.68078   -4.70400  2 O_32            7.29089
   -5.52865   -0.68078   -4.70400  2 O_32            7.29089
    2.24195    6.80775    1.56800  1 Pt_12           7.33692
   -2.24195    6.80775    1.56800  1 Pt_12           7.33692
    2.24195   -6.80775    1.56800  1 Pt_12           7.33692
   -2.24195   -6.80775    1.56800  1 Pt_12           7.33692
    2.24195    6.80775   -1.56800  1 Pt_12           7.33692
   -2.24195    6.80775   -1.56800  1 Pt_12           7.33692
    2.24195   -6.80775   -1.56800  1 Pt_12           7.33692
   -2.24195   -6.80775   -1.56800  1 Pt_12           7.33692
    1.19720    7.48853    0.00000  2 O_33            7.58363
   -1.19720   -7.48853    0.00000  2 O_33            7.58363
    3.28670    6.12697    3.13600  2 O_34            7.62736
   -3.28670   -6.12697    3.13600  2 O_34            7.62736
    3.28670    6.12697   -3.13600  2 O_34            7.62736
   -3.28670   -6.12697   -3.13600  2 O_34            7.62736
   -3.28670    2.95003    6.27200  2 O_35            7.67092
    3.28670   -2.95003    6.27200  2 O_35            7.67092
   -3.28670    2.95003   -6.27200  2 O_35            7.67092
    3.28670   -2.95003   -6.27200  2 O_35            7.67092
    4.48390    0.00000    6.27200  1 Pt_13           7.70995
   -4.48390    0.00000    6.27200  1 Pt_13           7.70995
    4.48390    0.00000   -6.27200  1 Pt_13           7.70995
   -4.48390    0.00000   -6.27200  1 Pt_13           7.70995
    0.00000    4.53850    6.27200  1 Pt_14           7.74183
    0.00000   -4.53850    6.27200  1 Pt_14           7.74183
    0.00000    4.53850   -6.27200  1 Pt_14           7.74183
    0.00000   -4.53850   -6.27200  1 Pt_14           7.74183
    5.52865    5.21927    1.56800  2 O_36            7.76308
   -5.52865   -5.21927    1.56800  2 O_36            7.76308
    5.52865    5.21927   -1.56800  2 O_36            7.76308
   -5.52865   -5.21927   -1.56800  2 O_36            7.76308
   -3.43915    5.21927    4.70400  2 O_37            7.82280
    3.43915   -5.21927    4.70400  2 O_37            7.82280
   -3.43915    5.21927   -4.70400  2 O_37            7.82280
    3.43915   -5.21927   -4.70400  2 O_37            7.82280
    7.77060    1.58848    0.00000  2 O_38            7.93130
   -7.77060   -1.58848    0.00000  2 O_38            7.93130
    1.04475    0.68078    7.84000  2 O_39            7.93855
   -1.04475   -0.68078    7.84000  2 O_39            7.93855
    1.04475    0.68078   -7.84000  2 O_39            7.93855
   -1.04475   -0.68078   -7.84000  2 O_39            7.93855
   -7.92305    0.68078    1.56800  2 O_40            8.10536
    7.92305   -0.68078    1.56800  2 O_40            8.10536
   -7.92305    0.68078   -1.56800  2 O_40            8.10536
    7.92305   -0.68078   -1.56800  2 O_40            8.10536
   -3.28670    7.48853    0.00000  2 O_41            8.17805
    3.28670   -7.48853    0.00000  2 O_41            8.17805
    1.19720    7.48853    3.13600  2 O_42            8.20645
   -1.19720   -7.48853    3.13600  2 O_42            8.20645
    1.19720    7.48853   -3.13600  2 O_42            8.20645
   -1.19720   -7.48853   -3.13600  2 O_42            8.20645
   -5.52865    3.85772    4.70400  2 O_43            8.22044
    5.52865   -3.85772    4.70400  2 O_43            8.22044
   -5.52865    3.85772   -4.70400  2 O_43            8.22044
    5.52865   -3.85772   -4.70400  2 O_43            8.22044
   -7.77060    2.95003    0.00000  2 O_44            8.31173
    7.77060   -2.95003    0.00000  2 O_44            8.31173
   -5.68110    6.12697    0.00000  2 O_45            8.35552
    5.68110   -6.12697    0.00000  2 O_45            8.35552
    2.24195    2.26925    7.84000  1 Pt_15           8.46413
   -2.24195    2.26925    7.84000  1 Pt_15           8.46413
    2.24195   -2.26925    7.84000  1 Pt_15           8.46413
   -2.24195   -2.26925    7.84000  1 Pt_15           8.46413
    2.24195    2.26925   -7.84000  1 Pt_15           8.46413
   -2.24195    2.26925   -7.84000  1 Pt_15           8.46413
    2.24195   -2.26925   -7.84000  1 Pt_15           8.46413
   -2.24195   -2.26925   -7.84000  1 Pt_15           8.46413
    6.72585    2.26925    4.70400  1 Pt_16           8.51553
   -6.72585    2.26925    4.70400  1 Pt_16           8.51553
    6.72585   -2.26925    4.70400  1 Pt_16           8.51553
   -6.72585   -2.26925    4.70400  1 Pt_16           8.51553
    6.72585    2.26925   -4.70400  1 Pt_16           8.51553
   -6.72585    2.26925   -4.70400  1 Pt_16           8.51553
    6.72585   -2.26925   -4.70400  1 Pt_16           8.51553
   -6.72585   -2.26925   -4.70400  1 Pt_16           8.51553
    7.77060    1.58848    3.13600  2 O_46            8.52877
   -7.77060   -1.58848    3.13600  2 O_46            8.52877
    7.77060    1.58848   -3.13600  2 O_46            8.52877
   -7.77060   -1.58848   -3.13600  2 O_46            8.52877
    2.24195    6.80775    4.70400  1 Pt_17           8.57318
   -2.24195    6.80775    4.70400  1 Pt_17           8.57318
    2.24195   -6.80775    4.70400  1 Pt_17           8.57318
   -2.24195   -6.80775    4.70400  1 Pt_17           8.57318
    2.24195    6.80775   -4.70400  1 Pt_17           8.57318
   -2.24195    6.80775   -4.70400  1 Pt_17           8.57318
    2.24195   -6.80775   -4.70400  1 Pt_17           8.57318
   -2.24195   -6.80775   -4.70400  1 Pt_17           8.57318
   -3.43915    0.68078    7.84000  2 O_47            8.58818
    3.43915   -0.68078    7.84000  2 O_47            8.58818
   -3.43915    0.68078   -7.84000  2 O_47            8.58818
    3.43915   -0.68078   -7.84000  2 O_47            8.58818
   -1.04475    8.39622    1.56800  2 O_48            8.60504
    1.04475   -8.39622    1.56800  2 O_48            8.60504
   -1.04475    8.39622   -1.56800  2 O_48            8.60504
    1.04475   -8.39622   -1.56800  2 O_48            8.60504
   -5.68110    1.58848    6.27200  2 O_49            8.61024
    5.68110   -1.58848    6.27200  2 O_49            8.61024
   -5.68110    1.58848   -6.27200  2 O_49            8.61024
    5.68110   -1.58848   -6.27200  2 O_49            8.61024
   -3.28670    7.48853    3.13600  2 O_50            8.75871
    3.28670   -7.48853    3.13600  2 O_50            8.75871
   -3.28670    7.48853   -3.13600  2 O_50            8.75871
    3.28670   -7.48853   -3.13600  2 O_50            8.75871
   -1.04475    3.85772    7.84000  2 O_51            8.79995
    1.04475   -3.85772    7.84000  2 O_51            8.79995
   -1.04475    3.85772   -7.84000  2 O_51            8.79995
    1.04475   -3.85772   -7.84000  2 O_51            8.79995
   -1.19720    6.12697    6.27200  2 O_52            8.84935
    1.19720   -6.12697    6.27200  2 O_52            8.84935
   -1.19720    6.12697   -6.27200  2 O_52            8.84935
    1.19720   -6.12697   -6.27200  2 O_52            8.84935
   -7.77060    2.95003    3.13600  2 O_53            8.88366
    7.77060   -2.95003    3.13600  2 O_53            8.88366
   -7.77060    2.95003   -3.13600  2 O_53            8.88366
    7.77060   -2.95003   -3.13600  2 O_53            8.88366
   -5.68110    6.12697    3.13600  2 O_54            8.92464
    5.68110   -6.12697    3.13600  2 O_54            8.92464
   -5.68110    6.12697   -3.13600  2 O_54            8.92464
    5.68110   -6.12697   -3.13600  2 O_54            8.92464
    5.52865    5.21927    4.70400  2 O_55            8.94060
   -5.52865   -5.21927    4.70400  2 O_55            8.94060
    5.52865    5.21927   -4.70400  2 O_55            8.94060
   -5.52865   -5.21927   -4.70400  2 O_55            8.94060
    4.48390    4.53850    6.27200  1 Pt_18           8.94658
   -4.48390    4.53850    6.27200  1 Pt_18           8.94658
    4.48390   -4.53850    6.27200  1 Pt_18           8.94658
   -4.48390   -4.53850    6.27200  1 Pt_18           8.94658
    4.48390    4.53850   -6.27200  1 Pt_18           8.94658
   -4.48390    4.53850   -6.27200  1 Pt_18           8.94658
    4.48390   -4.53850   -6.27200  1 Pt_18           8.94658
   -4.48390   -4.53850   -6.27200  1 Pt_18           8.94658
    7.92305    3.85772    1.56800  2 O_56            8.95072
   -7.92305   -3.85772    1.56800  2 O_56            8.95072
    7.92305    3.85772   -1.56800  2 O_56            8.95072
   -7.92305   -3.85772   -1.56800  2 O_56            8.95072
    5.68110    2.95003    6.27200  2 O_57            8.96189
   -5.68110   -2.95003    6.27200  2 O_57            8.96189
    5.68110    2.95003   -6.27200  2 O_57            8.96189
   -5.68110   -2.95003   -6.27200  2 O_57            8.96189
    8.96780    0.00000    0.00000  1 Pt_19           8.96780
   -8.96780    0.00000    0.00000  1 Pt_19           8.96780
    0.00000    9.07700    0.00000  1 Pt_20           9.07700
    0.00000   -9.07700    0.00000  1 Pt_20           9.07700
    3.43915    8.39622    1.56800  2 O_58            9.20776
   -3.43915   -8.39622    1.56800  2 O_58            9.20776
    3.43915    8.39622   -1.56800  2 O_58            9.20776
   -3.43915   -8.39622   -1.56800  2 O_58            9.20776
   -7.92305    0.68078    4.70400  2 O_59            9.23936
    7.92305   -0.68078    4.70400  2 O_59            9.23936
   -7.92305    0.68078   -4.70400  2 O_59            9.23936
    7.92305   -0.68078   -4.70400  2 O_59            9.23936
    3.28670    6.12697    6.27200  2 O_60            9.36377
   -3.28670   -6.12697    6.27200  2 O_60            9.36377
    3.28670    6.12697   -6.27200  2 O_60            9.36377
   -3.28670   -6.12697   -6.27200  2 O_60            9.36377
    3.43915    3.85772    7.84000  2 O_61            9.39017
   -3.43915   -3.85772    7.84000  2 O_61            9.39017
    3.43915    3.85772   -7.84000  2 O_61            9.39017
   -3.43915   -3.85772   -7.84000  2 O_61            9.39017
    5.68110    7.48853    0.00000  2 O_62            9.39963
   -5.68110   -7.48853    0.00000  2 O_62            9.39963
    0.00000    0.00000    9.40800  1 Pt_21           9.40800
    0.00000    0.00000   -9.40800  1 Pt_21           9.40800
    1.04475    5.21927    7.84000  2 O_63            9.47617
   -1.04475   -5.21927    7.84000  2 O_63            9.47617
    1.04475    5.21927   -7.84000  2 O_63            9.47617
   -1.04475   -5.21927   -7.84000  2 O_63            9.47617
    8.96780    0.00000    3.13600  1 Pt_22           9.50031
   -8.96780    0.00000    3.13600  1 Pt_22           9.50031
    8.96780    0.00000   -3.13600  1 Pt_22           9.50031
   -8.96780    0.00000   -3.13600  1 Pt_22           9.50031
    0.00000    9.07700    3.13600  1 Pt_23           9.60346
    0.00000   -9.07700    3.13600  1 Pt_23           9.60346
    0.00000    9.07700   -3.13600  1 Pt_23           9.60346
    0.00000   -9.07700   -3.13600  1 Pt_23           9.60346
   -1.19720    1.58848    9.40800  2 O_64            9.61598
    1.19720   -1.58848    9.40800  2 O_64            9.61598
   -1.19720    1.58848   -9.40800  2 O_64            9.61598
    1.19720   -1.58848   -9.40800  2 O_64            9.61598
   -7.92305    5.21927    1.56800  2 O_65            9.61635
    7.92305   -5.21927    1.56800  2 O_65            9.61635
   -7.92305    5.21927   -1.56800  2 O_65            9.61635
    7.92305   -5.21927   -1.56800  2 O_65            9.61635
    5.52865    0.68078    7.84000  2 O_66            9.61743
   -5.52865   -0.68078    7.84000  2 O_66            9.61743
    5.52865    0.68078   -7.84000  2 O_66            9.61743
   -5.52865   -0.68078   -7.84000  2 O_66            9.61743
   -1.04475    8.39622    4.70400  2 O_67            9.68068
    1.04475   -8.39622    4.70400  2 O_67            9.68068
   -1.04475    8.39622   -4.70400  2 O_67            9.68068
    1.04475   -8.39622   -4.70400  2 O_67            9.68068
    6.72585    6.80775    1.56800  1 Pt_24           9.69748
   -6.72585    6.80775    1.56800  1 Pt_24           9.69748
    6.72585   -6.80775    1.56800  1 Pt_24           9.69748
   -6.72585   -6.80775    1.56800  1 Pt_24           9.69748
    6.72585    6.80775   -1.56800  1 Pt_24           9.69748
   -6.72585    6.80775   -1.56800  1 Pt_24           9.69748
    6.72585   -6.80775   -1.56800  1 Pt_24           9.69748
   -6.72585   -6.80775   -1.56800  1 Pt_24           9.69748
    1.19720    7.48853    6.27200  2 O_68            9.84121
   -1.19720   -7.48853    6.27200  2 O_68            9.84121
    1.19720    7.48853   -6.27200  2 O_68            9.84121
   -1.19720   -7.48853   -6.27200  2 O_68            9.84121
    7.77060    6.12697    0.00000  2 O_69            9.89555
   -7.77060   -6.12697    0.00000  2 O_69            9.89555
    5.68110    7.48853    3.13600  2 O_70            9.90896
   -5.68110   -7.48853    3.13600  2 O_70            9.90896
    5.68110    7.48853   -3.13600  2 O_70            9.90896
   -5.68110   -7.48853   -3.13600  2 O_70            9.90896
    1.19720    2.95003    9.40800  2 O_71            9.93209
   -1.19720   -2.95003    9.40800  2 O_71            9.93209
    1.19720    2.95003   -9.40800  2 O_71            9.93209
   -1.19720   -2.95003   -9.40800  2 O_71            9.93209
    1.04475    9.75778    1.56800  2 O_72            9.93803
   -1.04475   -9.75778    1.56800  2 O_72            9.93803
    1.04475    9.75778   -1.56800  2 O_72            9.93803
   -1.04475   -9.75778   -1.56800  2 O_72            9.93803
    7.92305    3.85772    4.70400  2 O_73            9.98921
   -7.92305   -3.85772    4.70400  2 O_73            9.98921
    7.92305    3.85772   -4.70400  2 O_73            9.98921
   -7.92305   -3.85772   -4.70400  2 O_73            9.98921
 END










