 * This feff6 file was generated by Demeter 0.9.26
 * Demeter written by and copyright (c) Bruce Ravel, 2006-2019

 * --*--*--*--*--*--*--*--*--*--*--*--*--*--*--*--*--*--*--*--*--*--*--*--
 *  total mu*x=1:  14.488 microns,  unit edge step:  17.491 microns
 *  specific gravity:  11.757
 * --*--*--*--*--*--*--*--*--*--*--*--*--*--*--*--*--*--*--*--*--*--*--*--
 *  normalization correction:    0.00019 ang^2
 * --*--*--*--*--*--*--*--*--*--*--*--*--*--*--*--*--*--*--*--*--*--*--*--

 TITLE Pd

 HOLE      1   1.0   * FYI: (Pd K edge @ 24350 eV, 2nd number is S0^2)
 *         mphase,mpath,mfeff,mchi
 CONTROL   1      1     1     1     1      1
 PRINT     1      0     0     0     0      3

 RMAX      5.0
  * POLARIZATION  0.0   0.0   0.0

 POTENTIALS
  * ipot   Z      tag
     0     46     Pd
     1     46     Pd


 ATOMS                  * this list contains 55 atoms
 *   x          y          z     ipot tag           distance
    0.00000    0.00000    0.00000  0  Pd0           0.00000
    0.00000    1.95865    1.95865  1  Pd1.1         2.76995
    0.00000   -1.95865    1.95865  1  Pd1.1         2.76995
    0.00000    1.95865   -1.95865  1  Pd1.1         2.76995
    0.00000   -1.95865   -1.95865  1  Pd1.1         2.76995
    1.95865    0.00000    1.95865  1  Pd2.1         2.76995
   -1.95865    0.00000    1.95865  1  Pd2.1         2.76995
    1.95865    0.00000   -1.95865  1  Pd2.1         2.76995
   -1.95865    0.00000   -1.95865  1  Pd2.1         2.76995
    1.95865    1.95865    0.00000  1  Pd3.1         2.76995
   -1.95865    1.95865    0.00000  1  Pd3.1         2.76995
    1.95865   -1.95865    0.00000  1  Pd3.1         2.76995
   -1.95865   -1.95865    0.00000  1  Pd3.1         2.76995
    3.91730    0.00000    0.00000  1  Pd0.1         3.91730
   -3.91730    0.00000    0.00000  1  Pd0.1         3.91730
    0.00000    3.91730    0.00000  1  Pd0.1         3.91730
    0.00000   -3.91730    0.00000  1  Pd0.1         3.91730
    0.00000    0.00000    3.91730  1  Pd0.1         3.91730
    0.00000    0.00000   -3.91730  1  Pd0.1         3.91730
    3.91730    1.95865    1.95865  1  Pd1.2         4.79770
   -3.91730    1.95865    1.95865  1  Pd1.2         4.79770
    3.91730   -1.95865    1.95865  1  Pd1.2         4.79770
   -3.91730   -1.95865    1.95865  1  Pd1.2         4.79770
    3.91730    1.95865   -1.95865  1  Pd1.2         4.79770
   -3.91730    1.95865   -1.95865  1  Pd1.2         4.79770
    3.91730   -1.95865   -1.95865  1  Pd1.2         4.79770
   -3.91730   -1.95865   -1.95865  1  Pd1.2         4.79770
    1.95865    3.91730    1.95865  1  Pd2.2         4.79770
   -1.95865    3.91730    1.95865  1  Pd2.2         4.79770
    1.95865   -3.91730    1.95865  1  Pd2.2         4.79770
   -1.95865   -3.91730    1.95865  1  Pd2.2         4.79770
    1.95865    3.91730   -1.95865  1  Pd2.2         4.79770
   -1.95865    3.91730   -1.95865  1  Pd2.2         4.79770
    1.95865   -3.91730   -1.95865  1  Pd2.2         4.79770
   -1.95865   -3.91730   -1.95865  1  Pd2.2         4.79770
    1.95865    1.95865    3.91730  1  Pd3.2         4.79770
   -1.95865    1.95865    3.91730  1  Pd3.2         4.79770
    1.95865   -1.95865    3.91730  1  Pd3.2         4.79770
   -1.95865   -1.95865    3.91730  1  Pd3.2         4.79770
    1.95865    1.95865   -3.91730  1  Pd3.2         4.79770
   -1.95865    1.95865   -3.91730  1  Pd3.2         4.79770
    1.95865   -1.95865   -3.91730  1  Pd3.2         4.79770
   -1.95865   -1.95865   -3.91730  1  Pd3.2         4.79770
    3.91730    3.91730    0.00000  1  Pd0.2         5.53990
   -3.91730    3.91730    0.00000  1  Pd0.2         5.53990
    3.91730   -3.91730    0.00000  1  Pd0.2         5.53990
   -3.91730   -3.91730    0.00000  1  Pd0.2         5.53990
    3.91730    0.00000    3.91730  1  Pd0.2         5.53990
   -3.91730    0.00000    3.91730  1  Pd0.2         5.53990
    0.00000    3.91730    3.91730  1  Pd0.2         5.53990
    0.00000   -3.91730    3.91730  1  Pd0.2         5.53990
    3.91730    0.00000   -3.91730  1  Pd0.2         5.53990
   -3.91730    0.00000   -3.91730  1  Pd0.2         5.53990
    0.00000    3.91730   -3.91730  1  Pd0.2         5.53990
    0.00000   -3.91730   -3.91730  1  Pd0.2         5.53990

 END
